% Instancia problemática tipo: CUELLO_BOTELLA
% Razón: Topología con cuello de botella extremo, solo 1 nodo intermedio
% Demanda total: 11185.85
% Suministro total: 8948.68
% Factor holgura: 0.8

nP = 4;
nT = 1;
nC1 = 6;
nC2 = 10;
nA = 70;
nD = 3;

arc_from = [1, 2, 3, 4, 5, 5, 5, 5, 5, 5, 6, 6, 6, 6, 6, 6, 6, 6, 6, 6, 7, 7, 7, 7, 7, 7, 7, 7, 7, 7, 8, 8, 8, 8, 8, 8, 8, 8, 8, 8, 9, 9, 9, 9, 9, 9, 9, 9, 9, 9, 10, 10, 10, 10, 10, 10, 10, 10, 10, 10, 11, 11, 11, 11, 11, 11, 11, 11, 11, 11];
arc_to = [5, 5, 5, 5, 6, 7, 8, 9, 10, 11, 12, 13, 14, 15, 16, 17, 18, 19, 20, 21, 12, 13, 14, 15, 16, 17, 18, 19, 20, 21, 12, 13, 14, 15, 16, 17, 18, 19, 20, 21, 12, 13, 14, 15, 16, 17, 18, 19, 20, 21, 12, 13, 14, 15, 16, 17, 18, 19, 20, 21, 12, 13, 14, 15, 16, 17, 18, 19, 20, 21];

supply = [2237.17, 2237.17, 2237.17, 2237.17, 0, 0, 0, 0, 0, 0, 0, 0, 0, 0, 0, 0, 0, 0, 0, 0, 0];
demand = [0, 0, 0, 0, 0, 660.87, 791.93, 613.56, 665.61, 748.82, 685.56, 858.51, 773.21, 811.37, 613.75, 668.37, 686.82, 623.94, 669.84, 630.30, 683.39];

max_capacity = [795, 1414, 3181];

install_cost = array2d(1..nA, 1..nD, [
  20, 24, 32,
  50, 62, 78,
  20, 24, 32,
  50, 62, 78,
  20, 24, 32,
  50, 62, 78,
  20, 24, 32,
  50, 62, 78,
  20, 24, 32,
  50, 62, 78,
  20, 24, 32,
  50, 62, 78,
  20, 24, 32,
  50, 62, 78,
  20, 24, 32,
  50, 62, 78,
  20, 24, 32,
  50, 62, 78,
  20, 24, 32,
  50, 62, 78,
  20, 24, 32,
  50, 62, 78,
  20, 24, 32,
  50, 62, 78,
  20, 24, 32,
  50, 62, 78,
  20, 24, 32,
  50, 62, 78,
  20, 24, 32,
  50, 62, 78,
  20, 24, 32,
  50, 62, 78,
  20, 24, 32,
  50, 62, 78,
  20, 24, 32,
  50, 62, 78,
  20, 24, 32,
  50, 62, 78,
  20, 24, 32,
  50, 62, 78,
  20, 24, 32,
  50, 62, 78,
  20, 24, 32,
  50, 62, 78,
  20, 24, 32,
  50, 62, 78,
  20, 24, 32,
  50, 62, 78,
  20, 24, 32,
  50, 62, 78,
  20, 24, 32,
  50, 62, 78,
  20, 24, 32,
  50, 62, 78,
  20, 24, 32,
  50, 62, 78,
  20, 24, 32,
  50, 62, 78,
  20, 24, 32,
  50, 62, 78,
  20, 24, 32,
  50, 62, 78,
  20, 24, 32,
  50, 62, 78,
  20, 24, 32,
  50, 62, 78,
  20, 24, 32,
  50, 62, 78,
  20, 24, 32,
  50, 62, 78
]);

trans_cost = [12.90, 3.71, 6.68, 8.39, 12.32, 3.69, 11.49, 8.03, 5.06, 9.39, 8.60, 6.20, 8.21, 6.84, 8.34, 9.99, 12.76, 4.29, 14.40, 2.14, 7.54, 9.76, 8.84, 6.13, 7.38, 6.52, 6.23, 10.55, 9.07, 5.92, 10.70, 8.92, 10.44, 9.89, 5.51, 6.32, 10.24, 9.83, 7.94, 8.35, 11.83, 6.23, 9.64, 7.39, 7.35, 11.30, 10.48, 10.44, 11.92, 8.06, 10.05, 7.07, 8.97, 7.61, 8.29, 9.79, 5.55, 14.28, 4.98, 4.36, 11.47, 10.37, 9.87, 9.89, 7.96, 5.31, 8.23, 5.97, 10.93, 7.56];
